p cnf 21 29

3 2 3 4 0
-3 -2 -3 0
-3 -2 -4 0
-3 -3 -4 0
-2 -3 -4 0
6 6 0
-6 -6 0
7 8 0
-7 -8 0
9 10 0
-9 -10 0
11 0
12 0
13 0
14 0
15 0
16 0
17 0
18 19 0
-18 -19 0
20 21 0
-20 -21 0
-19 -21 0
-4 -10 0
-7 -9 0
 -2 -18 -2 -20 -18 -20 0
-6 -6 0
 -6 -6 -6 -17 -6 -17 0
-3 -3 0
